%%% static parameters %%%
timespan = 1;
Fact = [2];
Distr1 = [5];
Distr2 = [10];
Clients_N = [100];
Demand_W = [15];
Lt0 = [4];
Lt1 = [4];
SS_ = [0.85];
DS_D = [8];
K = [200];
MA = [500];
%%% dynamic parameters %%%
lost_ratio_sales_ret_th = 0.8949268354915408;
lost_ratio_sales_ret_w = 80;
lost_ratio_sales_dis_th = 0.030478754310504952;
lost_ratio_sales_dis_w = 77;
lost_ratio_sales_fac_th = 0.38022211832228003;
lost_ratio_sales_fac_w = 37;
stock_customer_MA_mean_relative_th = 0.9433029239189394;
stock_customer_MA_mean_relative_w = 40;
stock_distributor_MA_mean_relative_th = 0.251904264863425;
stock_distributor_MA_mean_relative_w = 62;
stock_retailer_MA_mean_relative_th = 0.06714656811581399;
stock_retailer_MA_mean_relative_w = 66;
stock_factory_MA_mean_relative_th = 0.9633295499215758;
stock_factory_MA_mean_relative_w = 75;
